1
1000
60
495 1
493 1
492 1
488 1
485 1
480 1
459 1
456 1
452 1
448 1
444 1
434 1
429 1
421 1
419 1
386 1
381 1
369 1
361 1
356 1
353 1
350 1
340 1
327 1
323 1
317 1
317 1
299 1
297 1
296 1
296 1
296 1
293 1
291 1
288 1
287 1
286 1
281 1
280 1
278 1
278 1
267 1
264 1
262 1
261 1
260 1
259 1
258 1
258 1
257 1
256 1
256 1
255 1
254 1
254 1
253 1
253 1
251 1
251 1
250 1
